0 0 0 0
0 1 0 3
0 2 2 0
0 3 0 0
0 4 2 1
0 5 0 8
0 6 0 1
0 7 1 1
0 8 2 16
0 9 0 10
0 10 0 4
0 11 0 4
0 12 2 10
0 13 0 7
0 14 2 23
0 15 1 11
0 16 0 12
0 17 0 17
0 18 0 17
0 19 0 32
0 20 0 18
0 21 0 20
0 22 0 22
0 23 0 26
0 24 2 23
0 25 0 12
0 26 1 20
0 27 0 28
0 28 1 33
0 29 1 28
0 30 0 33
0 31 0 36
